<number of tasks>
50

<cycle time>
1000

<order strength>
0.896


<task times>
1 52
2 30
3 147
4 26
5 73
6 66
7 281
8 117
9 38
10 175
11 30
12 154
13 167
14 102
15 140
16 84
17 133
18 54
19 33
20 157
21 92
22 120
23 114
24 150
25 79
26 57
27 130
28 114
29 48
30 33
31 137
32 201
33 38
34 160
35 70
36 114
37 34
38 215
39 89
40 111
41 267
42 145
43 145
44 181
45 178
46 187
47 52
48 162
49 180
50 300

<precedence relations>
1,3
1,4
1,6
1,7
2,5
2,6
2,7
3,8
4,8
4,10
4,11
5,8
5,9
5,10
5,11
5,12
6,11
6,12
7,8
7,9
7,10
7,11
7,12
8,17
8,18
9,15
10,13
11,14
12,13
12,14
12,15
13,16
13,17
13,18
14,16
14,17
14,18
15,16
15,17
15,18
16,19
16,20
16,21
17,19
17,20
17,21
18,19
18,20
18,21
19,22
19,23
20,22
20,23
21,22
21,23
22,24
22,25
23,24
23,25
24,26
24,27
25,26
25,27
26,28
26,29
26,30
27,28
27,29
27,30
28,31
29,33
29,34
30,31
30,32
30,33
31,41
31,42
32,35
33,35
34,35
35,36
35,37
36,38
37,39
38,40
38,42
39,41
39,44
40,44
40,47
41,43
42,44
42,49
43,45
43,46
43,47
44,46
46,50
47,48
47,49
47,50

<end>
